2023/11/29
gurobi is now 11.0.0
previous version was 10.0.3
solving instance knapsack 100 3 cubic
Set parameter TokenServer to value "licences.gerad.lan"
Set parameter MIPGap to value 1e-06
Set parameter FuncPieceError to value 1e-06
Set parameter Threads to value 1
Set parameter FuncPieces to value -2
Set parameter TimeLimit to value 3600
Gurobi Optimizer version 12.0.0 build v12.0.0rc1 (linux64 - "AlmaLinux 9.6 (Sage Margay)")

CPU model: Intel(R) Xeon(R) Gold 6258R CPU @ 2.70GHz, instruction set [SSE2|AVX|AVX2|AVX512]
Thread count: 56 physical cores, 56 logical processors, using up to 1 threads

Non-default parameters:
TimeLimit  3600
MIPGap  1e-06
Threads  1
FuncPieces  -2
FuncPieceError  1e-06

Optimize a model with 301 rows, 400 columns and 700 nonzeros
Model fingerprint: 0x73a677d4
Model has 100 function constraints treated as nonlinear
  100 POLY
Variable types: 300 continuous, 100 integer (100 binary)
Coefficient statistics:
  Matrix range     [2e-01, 1e+02]
  Objective range  [1e+00, 1e+00]
  Bounds range     [1e+02, 1e+10]
  RHS range        [1e+02, 2e+05]
Warning: Model contains large bounds
         Consider reformulating model or setting NumericFocus parameter
         to avoid numerical issues.
Found heuristic solution: objective 0.0000000
Presolve removed 300 rows and 200 columns
Presolve time: 0.00s
Presolved: 801 rows, 201 columns, 1700 nonzeros
Presolved model has 100 nonlinear constraint(s)

Solving non-convex MINLP

Found heuristic solution: objective -920.0539932
Variable types: 201 continuous, 0 integer (0 binary)
Found heuristic solution: objective -3066.738292

Root relaxation: objective -3.385621e+03, 204 iterations, 0.00 seconds (0.00 work units)

    Nodes    |    Current Node    |     Objective Bounds      |     Work
 Expl Unexpl |  Obj  Depth IntInf | Incumbent    BestBd   Gap | It/Node Time

     0     0 -3385.6207    0    8 -3066.7383 -3385.6207  10.4%     -    0s
H    0     0                    -3374.202542 -3385.6207  0.34%     -    0s
     0     0 -3385.6207    0    8 -3374.2025 -3385.6207  0.34%     -    0s
H    0     0                    -3384.896523 -3385.6207  0.02%     -    0s
     0     2 -3385.6207    0    8 -3384.8965 -3385.6207  0.02%     -    0s
H   48    28                    -3385.068371 -3385.3494  0.01%   9.1    0s
*   90    66              46    -3385.068767 -3385.3494  0.01%   6.8    0s
*   91    63              46    -3385.068768 -3385.3494  0.01%   6.7    0s
H   94    22                    -3385.072214 -3385.3494  0.01%   6.5    0s
*  180    64              44    -3385.087576 -3385.3461  0.01%   5.9    0s
*  279   107              53    -3385.090139 -3385.2931  0.01%   5.2    0s

Explored 1896 nodes (7536 simplex iterations) in 1.79 seconds (0.59 work units)
Thread count was 1 (of 56 available processors)

Solution count 10: -3385.09 -3385.09 -3385.07 ... -920.054

Optimal solution found (tolerance 1.00e-06)
Best objective -3.385090139345e+03, best bound -3.385093520316e+03, gap 0.0001%

User-callback calls 5040, time in user-callback 0.01 sec
primal_bound = -3385.090139344577, dual_bound = 0.0, gap = 100.0, time = 2.09
